language ESSENCE' 1.0
letting lastdx=95
letting cage be [
[17,9,13,9,14,10,14,0,0, 0,0],
[4,6,3,0,0, 0,0, 0,0, 0,0],
[12,6,13,0,0, 0,0, 0,0, 0,0],
[10,4,3,0,0, 0,0, 0,0, 0,0],
[3,6,4,0,0, 0,0, 0,0, 0,0],
[46,14,14,15,14,15,13,14,13,14,12],
[13,2,2,3,2,3,3,0,0, 0,0],
[10,2,16,1,16,0,0, 0,0, 0,0],
[10,3,9,0,0, 0,0, 0,0, 0,0],
[31,4,11,4,10,4,9,5,9,0,0],
[52,6,12,5,12,5,13,5,14,5,15],
[40,8,5,7,5,6,5,6,6,0,0],
[15,8,7,0,0, 0,0, 0,0, 0,0],
[23,12,12,13,12,13,13,0,0, 0,0],
[40,15,3,16,3,16,2,15,2,14,2],
[24,13,8,14,8,14,9,0,0, 0,0],
[32,14,11,15,11,15,12,16,12,16,11],
[4,15,4,0,0, 0,0, 0,0, 0,0],
[41,3,5,2,5,1,5,1,6,2,6],
[24,9,9,10,9,0,0, 0,0, 0,0],
[6,6,9,0,0, 0,0, 0,0, 0,0],
[1,6,16,0,0, 0,0, 0,0, 0,0],
[52,13,2,13,1,14,1,15,1,16,1],
[50,8,4,8,3,7,3,7,4,7,2],
[59,9,6,9,7,10,7,10,8,9,8],
[53,2,11,1,11,1,12,1,13,1,14],
[61,16,9,15,9,15,10,16,10,14,10],
[15,16,16,0,0, 0,0, 0,0, 0,0],
[8,10,1,0,0, 0,0, 0,0, 0,0],
[38,6,2,6,1,5,1,5,2,0,0],
[2,4,2,0,0, 0,0, 0,0, 0,0],
[7,3,6,4,6,0,0, 0,0, 0,0],
[44,4,1,3,1,2,1,1,1,0,0],
[14,15,5,0,0, 0,0, 0,0, 0,0],
[42,12,13,12,14,12,15,12,16,0,0],
[38,2,12,3,12,3,11,3,10,2,10],
[29,5,5,5,6,5,7,4,7,0,0],
[19,9,3,9,2,9,1,0,0, 0,0],
[5,6,10,0,0, 0,0, 0,0, 0,0],
[2,7,1,0,0, 0,0, 0,0, 0,0],
[16,12,2,0,0, 0,0, 0,0, 0,0],
[26,12,7,11,7,11,8,0,0, 0,0],
[32,8,12,9,12,10,12,10,13,0,0],
[1,15,7,0,0, 0,0, 0,0, 0,0],
[5,16,15,0,0, 0,0, 0,0, 0,0],
[21,2,15,1,15,0,0, 0,0, 0,0],
[43,9,10,9,11,10,11,11,11,11,12],
[4,12,10,0,0, 0,0, 0,0, 0,0],
[6,3,4,0,0, 0,0, 0,0, 0,0],
[49,8,6,7,6,7,7,6,7,6,8],
[1,13,14,0,0, 0,0, 0,0, 0,0],
[10,5,10,5,11,0,0, 0,0, 0,0],
[12,12,8,0,0, 0,0, 0,0, 0,0],
[3,7,10,0,0, 0,0, 0,0, 0,0],
[35,1,2,1,3,1,4,0,0, 0,0],
[27,4,4,4,5,0,0, 0,0, 0,0],
[35,11,14,11,13,11,15,10,15,9,15],
[36,11,4,11,5,12,5,12,6,11,6],
[31,16,8,15,8,16,7,16,6,0,0],
[42,14,3,13,3,12,3,12,4,13,4],
[18,2,14,2,13,3,13,0,0, 0,0],
[29,7,16,7,15,8,15,8,14,0,0],
[15,11,1,12,1,0,0, 0,0, 0,0],
[12,15,15,0,0, 0,0, 0,0, 0,0],
[14,8,2,8,1,0,0, 0,0, 0,0],
[32,13,10,13,9,12,9,0,0, 0,0],
[1,11,3,0,0, 0,0, 0,0, 0,0],
[17,1,7,1,8,1,9,1,10,0,0],
[33,2,7,2,8,2,9,0,0, 0,0],
[9,4,12,4,13,0,0, 0,0, 0,0],
[7,15,6,0,0, 0,0, 0,0, 0,0],
[6,8,8,0,0, 0,0, 0,0, 0,0],
[19,16,5,16,4,0,0, 0,0, 0,0],
[17,10,5,10,6,0,0, 0,0, 0,0],
[9,13,11,12,11,0,0, 0,0, 0,0],
[25,5,3,5,4,0,0, 0,0, 0,0],
[58,4,15,4,16,5,16,3,16,3,15],
[16,10,16,11,16,0,0, 0,0, 0,0],
[14,13,5,13,6,0,0, 0,0, 0,0],
[37,8,13,7,13,7,14,0,0, 0,0],
[42,4,8,5,8,3,8,3,7,0,0],
[16,10,4,10,3,0,0, 0,0, 0,0],
[15,8,10,8,9,7,9,7,8,0,0],
[12,2,3,2,4,0,0, 0,0, 0,0],
[20,3,14,4,14,0,0, 0,0, 0,0],
[11,6,11,0,0, 0,0, 0,0, 0,0],
[18,6,14,6,15,0,0, 0,0, 0,0],
[40,7,11,7,12,8,11,0,0, 0,0],
[22,8,16,9,16,0,0, 0,0, 0,0],
[12,9,4,9,5,0,0, 0,0, 0,0],
[16,10,2,11,2,0,0, 0,0, 0,0],
[42,10,10,11,10,11,9,0,0, 0,0],
[35,13,7,14,7,14,6,0,0, 0,0],
[30,13,15,14,15,14,16,13,16,15,16],
[13,14,4,14,5,0,0, 0,0, 0,0],
[13,16,13,16,14,0,0, 0,0, 0,0]
]
